PROBLEM NAME: eil51_n18
KNAPSACK DATA TYPE: uncorrelated
DIMENSION: 18
NUMBER OF ITEMS: 17
CAPACITY OF KNAPSACK: 9793
MIN SPEED: 0.1
MAX SPEED: 1
RENTING RATIO: 11.50
EDGE_WEIGHT_TYPE: CEIL_2D
NODE_COORD_SECTION	(INDEX, X, Y):
1	37	52
2	49	49
3	20	26
4	21	47
5	17	63
6	31	62
7	51	21
8	42	41
9	31	32
10	27	23
11	17	33
12	7	38
13	58	27
14	38	46
15	32	22
16	5	6
17	25	55
18	48	28
ITEMS SECTION	(INDEX, PROFIT, WEIGHT, ASSIGNED NODE NUMBER):
1	891	532	14
2	867	970	8
3	808	906	2
4	727	724	13
5	710	416	7
6	572	300	18
7	518	149	9
8	434	925	15
9	431	493	10
10	383	700	16
11	343	581	3
12	281	930	11
13	218	428	12
14	212	811	4
15	138	148	17
16	116	909	5
17	91	851	6
